NAME          
ROWS
 N  OBJ
 L  c1
COLUMNS
    MARKER    'MARKER'                 'INTORG'
    x[1]      c1        253
    x[1]      OBJ       -207
    x[2]      c1        229
    x[2]      OBJ       -278
    x[3]      c1        543
    x[3]      OBJ       -489
    x[4]      c1        221
    x[4]      OBJ       -176
    x[5]      c1        334
    x[5]      OBJ       -308
    x[6]      c1        313
    x[6]      OBJ       -281
    x[7]      c1        227
    x[7]      OBJ       -295
    x[8]      c1        198
    x[8]      OBJ       -195
    x[9]      c1        81
    x[9]      OBJ       -87
    x[10]     c1        189
    x[10]     OBJ       -279
    x[11]     c1        404
    x[11]     OBJ       -434
    x[12]     c1        922
    x[12]     OBJ       -949
    x[13]     c1        962
    x[13]     OBJ       -917
    x[14]     c1        655
    x[14]     OBJ       -705
    x[15]     c1        199
    x[15]     OBJ       -294
    x[16]     c1        269
    x[16]     OBJ       -230
    x[17]     c1        405
    x[17]     OBJ       -469
    x[18]     c1        946
    x[18]     OBJ       -992
    x[19]     c1        252
    x[19]     OBJ       -193
    x[20]     c1        384
    x[20]     OBJ       -460
RHS
    rhs       c1        3993
RANGES
BOUNDS
 BV bounds    x[1]
 BV bounds    x[2]
 BV bounds    x[3]
 BV bounds    x[4]
 BV bounds    x[5]
 BV bounds    x[6]
 BV bounds    x[7]
 BV bounds    x[8]
 BV bounds    x[9]
 BV bounds    x[10]
 BV bounds    x[11]
 BV bounds    x[12]
 BV bounds    x[13]
 BV bounds    x[14]
 BV bounds    x[15]
 BV bounds    x[16]
 BV bounds    x[17]
 BV bounds    x[18]
 BV bounds    x[19]
 BV bounds    x[20]
ENDATA
